148
0 87 95 20 19 117 109 26 56 7 
30 77 10 92 51 126 59 125 123 13 
8 42 79 36 62 142 120 82 54 38 
136 49 1 71 103 80 115 32 9 111 
131 85 124 72 44 145 27 25 84 127 
50 69 14 68 55 100 73 64 33 66 
122 28 35 146 99 3 128 94 43 58 
105 129 104 53 137 18 101 31 119 96 
97 88 130 63 37 140 110 134 93 65 
4 52 86 46 116 143 34 29 67 75 
144 16 17 11 39 23 132 57 47 78 
90 118 12 139 2 112 147 74 48 5 
40 102 107 113 121 141 108 21 106 22 
70 138 24 45 91 114 15 81 98 83 
60 133 41 6 76 61 89 135 
